
Gurobi 6.0.4 (win64) logging started 06/18/15 17:42:01

Read LP format model from file E:\Eigene Dateien\Downloads\Michi shit\VRPTWMS2\instances\mip\fuel\N6-C_DV100-C_SV25_F5_9_No_1.lp
Reading time = 0.00 seconds
(null): 253 rows, 128 columns, 957 nonzeros
Optimize a model with 253 rows, 128 columns and 957 nonzeros
Model has 216 quadratic constraints
Coefficient statistics:
  Matrix range    [1e+00, 1e+06]
  Objective range [8e+04, 1e+07]
  Bounds range    [1e+00, 1e+06]
  RHS range       [1e+00, 1e+06]
Presolve removed 46 rows and 34 columns
Presolve time: 0.01s
Presolved: 407 rows, 194 columns, 2121 nonzeros
Variable types: 100 continuous, 94 integer (72 binary)
Found heuristic solution: objective 3.162590e+07

Root relaxation: objective 3.010856e+07, 50 iterations, 0.00 seconds

    Nodes    |    Current Node    |     Objective Bounds      |     Work
 Expl Unexpl |  Obj  Depth IntInf | Incumbent    BestBd   Gap | It/Node Time

     0     0 3.0109e+07    0   12 3.1626e+07 3.0109e+07  4.80%     -    0s
     0     0     cutoff    0      3.1626e+07 3.1626e+07  0.00%     -    0s

Cutting planes:
  Cover: 1
  Clique: 3
  MIR: 3

Explored 0 nodes (68 simplex iterations) in 0.02 seconds
Thread count was 4 (of 4 available processors)

Optimal solution found (tolerance 1.00e-04)
Best objective 3.162590000000e+07, best bound 3.162590000000e+07, gap 0.0%
k_c1	50000.0
k_c2	60000.0
k_c3	1000000.0
k_c4	910000.0
k_c5	1000000.0
k_c6	90000.0
k_dN	-0.0
o_1	-0.0
o_2	-0.0
o_3	-0.0
o_4	-0.0
o_5	-0.0
o_6	-0.0
p_1	-0.0
p_2	-0.0
p_3	-0.0
p_4	-0.0
p_5	-0.0
p_6	-0.0
phi_c1	8142.0
phi_c2	15166.0
phi_c3	36225.0
phi_c4	33221.0
phi_c5	30111.0
phi_c6	7111.0
phi_d0	50000.0
phi_dN	-0.0
tauD_c1	700000.0
tauD_c2	800000.0
tauD_c3	450000.0
tauD_c4	300000.0
tauD_c5	497250.0
tauD_c6	600000.0
tauD_d0	-0.0
tauD_dN	1000000.0
tauS_c1	34050.0
tauS_c2	863325.0
tauS_c3	863925.0
tauS_c4	63275.0
tauS_c5	58925.0
tauS_c6	9425.0
tauS_d0	-0.0
tauS_dN	6675.0
x_c1_dN	1.0
x_c2_dN	1.0
x_c3_c2	1.0
x_c4_c1	1.0
x_c5_c6	1.0
x_c6_dN	1.0
x_d0_c3	1.0
x_d0_c4	1.0
x_d0_c5	1.0
